Route #1: 4
Route #2: 23 56 43 41 42
Route #3: 15 20 37 36 47
Route #4: 14 59 53
Route #5: 10 31 39
Route #6: 19 54 13 57 5
Route #7: 25 55 18 50 44
Route #8: 21 48 29
Route #9: 35 11 38
Route #10: 58 9 32
Route #11: 3 24 49 16 51
Route #12: 30 2 33
Route #13: 45 27 52 34
Route #14: 6 1 22 28
Route #15: 12 40 17
Route #16: 26 7 8 46
Cost 1016.9632054112981